0
Node Left Objective IInf Best_Integer Best_Bound ItCnt Gap
0+ 0 nan nan 17080.7259 -1708.0726 nan 110.00%
0+ 0 nan nan -66.3573 -1708.0726 nan ---
0 0 -93.0816 11 -66.3573 -93.0816 79 40.27%
0+ 0 nan nan -85.7652 -93.0816 nan 8.53%
0 0 -91.4282 12 -85.7652 Cuts:18 96 6.60%
0 0 -91.3677 15 -85.7652 Cuts:17 112 6.53%
0 0 -90.6010 14 -85.7652 Cuts:25 130 5.64%
0+ 0 nan nan -85.8948 -90.6010 nan 5.48%
0 0 -90.5189 13 -85.8948 Cuts:10 138 5.38%
0 0 -90.5142 15 -85.8948 LiftProj:9 141 5.38%
0 0 -90.5106 14 -85.8948 Cuts:18 145 5.37%
0 0 -90.3243 12 -85.8948 LiftProj:8 159 5.16%
0+ 0 nan nan -86.4772 -90.3243 nan 4.45%
0 0 -90.2746 14 -86.4772 Cuts:8 167 4.39%
0 0 -90.2316 14 -86.4772 Cuts:19 176 4.34%
0 0 -89.8776 16 -86.4772 Cuts:10 192 3.93%
0 0 -89.5372 18 -86.4772 Cuts:17 208 3.54%
0 0 -89.5090 15 -86.4772 Cuts:9 217 3.51%
0 0 -89.5075 16 -86.4772 LiftProj:5 224 3.50%
0 2 -89.3180 10 -86.4772 -89.3180 224 3.28%
CPXPARAM_MIP_Cuts_LiftProj-MIRCut:LiftProj 1
CPXPARAM_MIP_Cuts_LiftProj-MIRCut:MIRCut 14
1
Node Left Objective IInf Best_Integer Best_Bound ItCnt Gap
0+ 0 nan nan 17807.5550 -1780.7555 nan 110.00%
0+ 0 nan nan -246.6070 -1780.7555 nan 622.10%
0 0 -451.0443 22 -246.6070 -451.0443 124 82.90%
0+ 0 nan nan -437.4023 -451.0443 nan 3.12%
0 0 -450.5083 18 -437.4023 Cuts:19 143 3.00%
0+ 0 nan nan -440.9523 -450.5083 nan 2.17%
0 0 -450.3660 23 -440.9523 Cuts:28 159 2.13%
0 0 -450.0738 23 -440.9523 Cuts:28 171 2.07%
0 0 -450.0259 26 -440.9523 Cuts:26 190 2.06%
0 0 -449.8533 28 -440.9523 Cuts:39 212 2.02%
0+ 0 nan nan -441.3317 -449.8533 nan 1.93%
0 0 -449.7346 27 -441.3317 Cuts:27 237 1.90%
0 0 -449.5192 26 -441.3317 Cuts:26 257 1.86%
0+ 0 nan nan -441.7784 -449.5192 nan 1.75%
0 0 -449.4268 28 -441.7784 Cuts:45 286 1.73%
0 0 -449.4152 28 -441.7784 Cuts:37 300 1.73%
0+ 0 nan nan -444.6720 -449.4152 nan 1.07%
0 0 -448.9207 27 -444.6720 Cuts:20 328 0.96%
0 0 -448.6856 24 -444.6720 Cuts:24 345 0.90%
0 0 -448.6521 24 -444.6720 Cuts:27 360 0.90%
0 2 -448.5504 12 -444.6720 -448.3964 360 0.84%
CPXPARAM_MIP_Cuts_LiftProj-MIRCut:LiftProj 2
CPXPARAM_MIP_Cuts_LiftProj-MIRCut:MIRCut 13
2
Node Left Objective IInf Best_Integer Best_Bound ItCnt Gap
0+ 0 nan nan 21992.9672 -2199.2967 nan 110.00%
0+ 0 nan nan -144.9985 -2199.2967 nan ---
0 0 cutoff -144.9985 -144.9985 77 0.00%
0 0 cutoff -144.9985 -144.9985 77 0.00% 0
CPXPARAM_MIP_Cuts_LiftProj-MIRCut:LiftProj 0
CPXPARAM_MIP_Cuts_LiftProj-MIRCut:MIRCut 0
3
Node Left Objective IInf Best_Integer Best_Bound ItCnt Gap
0+ 0 nan nan 15130.5599 -1513.0560 nan 110.00%
0+ 0 nan nan -319.1991 -1513.0560 nan 374.02%
0 0 -373.2689 13 -319.1991 -373.2689 81 16.94%
0+ 0 nan nan -322.8337 -373.2689 nan 15.62%
0 0 -373.2689 11 -322.8337 Cuts:7 100 15.62%
0 0 -373.2221 18 -322.8337 Cuts:10 111 15.61%
0 0 -373.1681 14 -322.8337 Cuts:13 122 15.59%
0 0 -373.1607 16 -322.8337 Cuts:3 124 15.59%
0 0 -373.1376 16 -322.8337 Cuts:5 131 15.58%
0 0 -373.1239 13 -322.8337 Cuts:12 137 15.58%
0+ 0 nan nan -370.4100 -373.1239 nan 0.73%
0+ 0 nan nan -371.0358 -373.1239 nan 0.56%
0 0 -372.0651 6 -371.0358 -371.0358 161 0.00%
CPXPARAM_MIP_Cuts_LiftProj-MIRCut:LiftProj 8
CPXPARAM_MIP_Cuts_LiftProj-MIRCut:MIRCut 8
4
Node Left Objective IInf Best_Integer Best_Bound ItCnt Gap
0+ 0 nan nan 17229.3640 -1722.9364 nan 110.00%
0+ 0 nan nan -67.4145 -1722.9364 nan ---
0 0 -89.1646 11 -67.4145 -89.1646 97 32.26%
0 0 -88.7527 10 -67.4145 Cuts:26 107 31.65%
0+ 0 nan nan -85.3062 -88.7527 nan 4.04%
0 0 -88.4526 10 -85.3062 Cuts:17 122 3.69%
0 0 -88.4121 10 -85.3062 Cuts:20 129 3.64%
0 0 -88.1503 11 -85.3062 Cuts:17 138 3.33%
0 0 -88.0619 9 -85.3062 Cuts:15 148 3.23%
0 0 -88.0085 11 -85.3062 Cuts:10 154 3.17%
0 0 -87.8524 11 -85.3062 Cuts:10 164 2.98%
0 0 -87.6515 9 -85.3062 LiftProj:5 174 2.75%
0+ 0 nan nan -85.5988 -87.6515 nan 2.40%
0 0 -87.5642 10 -85.5988 LiftProj:3 181 2.30%
0 0 -87.2237 10 -85.5988 Cuts:14 188 1.90%
0 0 -87.0486 11 -85.5988 Cuts:9 196 1.69%
0 0 -86.9623 10 -85.5988 LiftProj:7 201 1.59%
0 0 -86.8471 11 -85.5988 Cuts:9 213 1.46%
0 0 -86.7450 10 -85.5988 Cuts:7 219 1.34%
0 0 -86.6876 10 -85.5988 LiftProj:5 225 1.27%
0 0 -86.6079 11 -85.5988 LiftProj:6 232 1.18%
0 0 -86.4848 11 -85.5988 LiftProj:5 239 1.04%
0 0 -86.4600 11 -85.5988 Cuts:9 245 1.01%
0 0 -86.4166 11 -85.5988 LiftProj:8 254 0.96%
0 0 -86.4098 11 -85.5988 LiftProj:3 258 0.95%
0 0 -86.4040 11 -85.5988 LiftProj:5 263 0.94%
0 2 -86.2819 2 -85.5988 -86.2315 263 0.74%
CPXPARAM_MIP_Cuts_LiftProj-MIRCut:LiftProj 1
CPXPARAM_MIP_Cuts_LiftProj-MIRCut:MIRCut 17
5
Node Left Objective IInf Best_Integer Best_Bound ItCnt Gap
0+ 0 nan nan 19297.4075 -1929.7408 nan 110.00%
0+ 0 nan nan -216.7443 -1929.7408 nan 790.33%
0 0 -495.8139 18 -216.7443 -495.8139 104 128.76%
0+ 0 nan nan -360.6431 -495.8139 nan 37.48%
0 0 -495.6258 19 -360.6431 Cuts:23 113 37.43%
0+ 0 nan nan -363.5780 -495.6258 nan 36.32%
0 0 -495.5653 23 -363.5780 Cuts:26 126 36.30%
0 0 -495.4276 27 -363.5780 Cuts:27 144 36.26%
0 0 -495.1781 28 -363.5780 Cuts:24 161 36.20%
0 0 -494.5281 29 -363.5780 Cuts:28 185 36.02%
0 0 -494.2112 28 -363.5780 Cuts:32 210 35.93%
0 0 -493.9227 29 -363.5780 Cuts:34 237 35.85%
0 0 -493.6597 32 -363.5780 Cuts:20 267 35.78%
0 0 -493.2834 30 -363.5780 Cuts:18 292 35.67%
0 0 -492.9612 34 -363.5780 Cuts:27 330 35.59%
0 0 -492.7537 34 -363.5780 Cuts:22 350 35.53%
0 0 -492.4742 34 -363.5780 Cuts:19 380 35.45%
0 0 -492.2673 35 -363.5780 Cuts:20 402 35.40%
0 0 -492.1115 32 -363.5780 Cuts:18 421 35.35%
0 0 -492.0087 33 -363.5780 Cuts:22 439 35.32%
0 0 -491.9721 33 -363.5780 Cuts:13 454 35.31%
0 0 -491.9008 32 -363.5780 Cuts:15 472 35.29%
0+ 0 nan nan -481.8050 -491.9008 nan 2.10%
0 2 -491.9008 32 -481.8050 -491.8976 472 2.09%
CPXPARAM_MIP_Cuts_LiftProj-MIRCut:LiftProj 12
CPXPARAM_MIP_Cuts_LiftProj-MIRCut:MIRCut 21
6
Node Left Objective IInf Best_Integer Best_Bound ItCnt Gap
0+ 0 nan nan 17283.6857 -1728.3686 nan 110.00%
0+ 0 nan nan -89.3561 -1728.3686 nan ---
0 0 -92.8995 6 -89.3561 -92.8995 83 3.97%
0 0 -92.8995 4 -89.3561 Cuts:8 92 3.97%
0+ 0 nan nan -92.7479 -92.8995 nan 0.16%
0 2 -92.8162 2 -92.7479 -92.8162 100 0.07%
CPXPARAM_MIP_Cuts_LiftProj-MIRCut:LiftProj 1
CPXPARAM_MIP_Cuts_LiftProj-MIRCut:MIRCut 3
7
Node Left Objective IInf Best_Integer Best_Bound ItCnt Gap
0+ 0 nan nan 18737.7240 -1873.9213 nan 110.00%
0+ 0 nan nan -349.2878 -1873.9213 nan 436.50%
0 0 -476.7132 19 -349.2878 -476.7132 92 36.48%
0+ 0 nan nan -351.7851 -476.7132 nan 35.51%
0 0 -476.4088 21 -351.7851 Cuts:16 124 35.43%
0 0 -476.2502 23 -351.7851 Cuts:24 150 35.38%
0 0 -475.7974 21 -351.7851 Cuts:21 176 35.25%
0 0 -475.4127 23 -351.7851 Cuts:27 203 35.14%
0 0 -475.0830 24 -351.7851 Cuts:26 234 35.05%
0 0 -474.8307 23 -351.7851 Cuts:35 265 34.98%
0 0 -474.6572 21 -351.7851 Cuts:29 283 34.93%
0 0 -474.5381 24 -351.7851 Cuts:26 298 34.89%
0 0 -474.3257 21 -351.7851 Cuts:27 322 34.83%
0 0 -474.0256 22 -351.7851 Cuts:19 339 34.75%
0 0 -473.7533 27 -351.7851 Cuts:22 364 34.67%
0 0 -473.6893 24 -351.7851 Cuts:18 382 34.65%
0 0 -473.5194 27 -351.7851 Cuts:23 412 34.60%
0 0 -473.4087 25 -351.7851 Cuts:18 436 34.57%
0+ 0 nan nan -410.9742 -473.4087 nan 15.19%
0 0 -473.2308 27 -410.9742 Cuts:28 459 15.15%
0 0 -473.1114 26 -410.9742 Cuts:16 479 15.12%
0 0 -472.9592 27 -410.9742 Cuts:19 510 15.08%
0 0 -472.8071 30 -410.9742 Cuts:17 535 15.05%
0 0 -472.6916 28 -410.9742 Cuts:12 550 15.02%
0 0 -472.6046 29 -410.9742 Cuts:9 572 15.00%
0 0 -472.5841 28 -410.9742 Cuts:15 581 14.99%
0+ 0 nan nan -469.1581 -472.5841 nan 0.73%
0 2 -472.5403 25 -469.1581 -472.5357 581 0.72%
CPXPARAM_MIP_Cuts_LiftProj-MIRCut:LiftProj 16
CPXPARAM_MIP_Cuts_LiftProj-MIRCut:MIRCut 20
8
Node Left Objective IInf Best_Integer Best_Bound ItCnt Gap
0+ 0 nan nan 20324.0135 -2032.4014 nan 110.00%
0+ 0 nan nan -89.4132 -2032.4014 nan ---
0 0 -103.1383 11 -89.4132 -103.1383 78 15.35%
0 0 -102.8774 12 -89.4132 Cuts:16 86 15.06%
0+ 0 nan nan -100.8155 -102.8774 nan 2.05%
0 0 -102.7522 12 -100.8155 Cuts:15 97 1.92%
0+ 0 nan nan -102.0140 -102.7522 nan 0.72%
0 0 -102.6375 12 -102.0140 Cuts:15 109 0.61%
0 0 -102.5996 6 -102.0140 Cuts:9 118 0.57%
0 0 -102.3062 4 -102.0140 Cuts:4 126 0.29%
0 0 -102.2015 5 -102.0140 MIRcuts:2 134 0.18%
0 0 -102.1729 5 -102.0140 Cuts:4 141 0.16%
0 0 cutoff -102.0140 152 0.00% 0 0
CPXPARAM_MIP_Cuts_LiftProj-MIRCut:LiftProj 0
CPXPARAM_MIP_Cuts_LiftProj-MIRCut:MIRCut 2
9
Node Left Objective IInf Best_Integer Best_Bound ItCnt Gap
0+ 0 nan nan 19574.3912 -1957.4391 nan 110.00%
0+ 0 nan nan -340.7562 -1957.4391 nan 474.44%
0 0 -481.4397 15 -340.7562 -481.4397 75 41.29%
0+ 0 nan nan -474.2321 -481.4397 nan 1.52%
0 0 -481.0230 14 -474.2321 Cuts:20 86 1.43%
0+ 0 nan nan -474.5367 -481.0230 nan 1.37%
0 0 -480.8733 18 -474.5367 Cuts:25 103 1.34%
0 0 -480.0715 17 -474.5367 Cuts:22 121 1.17%
0 0 -479.9004 19 -474.5367 Cuts:26 143 1.13%
0 0 -479.6775 16 -474.5367 Cuts:20 163 1.08%
0 0 -479.2892 18 -474.5367 Cuts:25 187 1.00%
0 0 -479.1145 21 -474.5367 Cuts:25 211 0.96%
0 0 -479.1043 23 -474.5367 Cuts:17 219 0.96%
0 0 -479.0027 23 -474.5367 Cuts:14 236 0.94%
0 0 -478.9837 21 -474.5367 Cuts:24 248 0.94%
0+ 0 nan nan -476.4445 -478.9837 nan 0.53%
0 2 -478.8475 12 -476.4445 -478.8475 248 0.50%
CPXPARAM_MIP_Cuts_LiftProj-MIRCut:LiftProj 0
CPXPARAM_MIP_Cuts_LiftProj-MIRCut:MIRCut 13
10
Node Left Objective IInf Best_Integer Best_Bound ItCnt Gap
0+ 0 nan nan 27187.3215 -2718.7321 nan 110.00%
0+ 0 nan nan 10.9576 -2718.7321 nan ---
0 0 -173.4759 5 10.9576 -173.4759 75 ---
0+ 0 nan nan 7.7729 -173.4759 nan ---
0+ 0 nan nan -171.3795 -173.4759 nan 1.22%
0 0 -173.4759 3 -171.3795 Cuts:6 81 1.22%
0 0 -173.4759 7 -171.3795 Cuts:8 92 1.22%
0 0 -173.4759 7 -171.3795 Cuts:5 100 1.22%
0 2 -173.4759 3 -171.3795 -173.4759 100 1.22%
CPXPARAM_MIP_Cuts_LiftProj-MIRCut:LiftProj 0
CPXPARAM_MIP_Cuts_LiftProj-MIRCut:MIRCut 8
11
Node Left Objective IInf Best_Integer Best_Bound ItCnt Gap
0+ 0 nan nan 22470.7077 -2247.0708 nan 110.00%
0+ 0 nan nan -339.2451 -2247.0708 nan 562.37%
0 0 -573.6242 10 -339.2451 -573.6242 79 69.09%
0+ 0 nan nan -570.2156 -573.6242 nan 0.60%
0 0 -573.6242 13 -570.2156 Cuts:6 95 0.60%
0 0 -573.4090 17 -570.2156 Cuts:12 117 0.56%
0 0 -573.2803 20 -570.2156 Cuts:9 126 0.54%
0 0 -573.2589 20 -570.2156 Cuts:10 137 0.53%
0+ 0 nan nan -570.3419 -573.2589 nan 0.51%
0 2 -573.0643 7 -570.3419 -573.0578 137 0.48%
CPXPARAM_MIP_Cuts_LiftProj-MIRCut:LiftProj 2
CPXPARAM_MIP_Cuts_LiftProj-MIRCut:MIRCut 14
12
Node Left Objective IInf Best_Integer Best_Bound ItCnt Gap
0+ 0 nan nan 21290.0070 -2129.0007 nan 110.00%
0+ 0 nan nan -108.2542 -2129.0007 nan ---
0 0 -125.5769 9 -108.2542 -125.5769 93 16.00%
0+ 0 nan nan -118.3639 -125.5769 nan 6.09%
0 0 -124.8481 9 -118.3639 Cuts:16 108 5.48%
0 0 -124.7632 12 -118.3639 Cuts:19 114 5.41%
0 0 -124.5865 14 -118.3639 Cuts:16 123 5.26%
0 0 -124.0156 13 -118.3639 Cuts:12 140 4.77%
0 0 -123.9747 12 -118.3639 Cuts:12 147 4.74%
0+ 0 nan nan -121.2111 -123.9747 nan 2.28%
0 0 -123.8541 14 -121.2111 Cuts:11 155 2.18%
0 0 -123.7052 13 -121.2111 LiftProj:12 162 2.06%
0 0 -123.6386 13 -121.2111 Cuts:11 171 2.00%
0 0 -123.5728 13 -121.2111 Cuts:21 184 1.95%
0 0 -123.5329 13 -121.2111 Cuts:9 194 1.92%
0 0 -123.3168 11 -121.2111 Cuts:17 204 1.74%
0 0 -123.2614 12 -121.2111 Cuts:16 212 1.69%
0 0 -123.2234 13 -121.2111 Cuts:14 215 1.66%
0 0 -123.0928 14 -121.2111 Cuts:13 228 1.55%
0 0 -123.0248 15 -121.2111 Cuts:8 234 1.50%
0 0 -122.7861 13 -121.2111 Cuts:8 248 1.30%
0 0 -122.7724 16 -121.2111 Cuts:9 255 1.29%
0 0 -122.7507 11 -121.2111 LiftProj:4 257 1.27%
0 2 -122.1000 7 -121.2111 -122.0753 257 0.71%
CPXPARAM_MIP_Cuts_LiftProj-MIRCut:LiftProj 1
CPXPARAM_MIP_Cuts_LiftProj-MIRCut:MIRCut 13
13
Node Left Objective IInf Best_Integer Best_Bound ItCnt Gap
0+ 0 nan nan 18711.1828 -1871.1183 nan 110.00%
0+ 0 nan nan -86.7463 -1871.1183 nan ---
0 0 -468.4244 16 -86.7463 -468.4244 90 439.99%
0+ 0 nan nan -462.1230 -468.4244 nan 1.36%
0 0 -468.2283 18 -462.1230 Cuts:22 100 1.32%
0 0 -468.1246 21 -462.1230 Cuts:21 112 1.30%
0 0 -467.5291 20 -462.1230 Cuts:19 138 1.17%
0 0 -467.4583 20 -462.1230 Cuts:30 157 1.15%
0 0 -467.3668 24 -462.1230 Cuts:19 191 1.13%
0 0 -467.3606 25 -462.1230 Cuts:26 210 1.13%
0 0 -467.3496 30 -462.1230 Cuts:21 230 1.13%
0 2 -467.3494 29 -462.1230 -467.3477 230 1.13%
CPXPARAM_MIP_Cuts_LiftProj-MIRCut:LiftProj 5
CPXPARAM_MIP_Cuts_LiftProj-MIRCut:MIRCut 16
14
Node Left Objective IInf Best_Integer Best_Bound ItCnt Gap
0+ 0 nan nan 22739.1838 -2273.9184 nan 110.00%
0+ 0 nan nan -144.2844 -2273.9184 nan ---
0 0 -146.9071 10 -144.2844 -146.9071 80 1.82%
0 0 -146.8581 6 -144.2844 Cuts:8 86 1.78%
0 0 -146.7992 10 -144.2844 Cuts:15 97 1.74%
0 0 -146.7805 16 -144.2844 Cuts:15 111 1.73%
0 0 -146.7506 14 -144.2844 Cuts:14 122 1.71%
0+ 0 nan nan -145.9432 -146.7506 nan 0.55%
0 0 -146.7422 13 -145.9432 Cuts:10 135 0.55%
0 0 -146.7406 13 -145.9432 Cuts:17 141 0.55%
0 0 -146.7255 9 -145.9432 Cuts:6 148 0.54%
0 0 -146.7255 9 -145.9432 Cuts:8 150 0.54%
0+ 0 nan nan -146.6955 -146.7255 nan 0.02%
0 0 cutoff -146.6955 -146.7255 150 0.02% 0
CPXPARAM_MIP_Cuts_LiftProj-MIRCut:LiftProj 1
CPXPARAM_MIP_Cuts_LiftProj-MIRCut:MIRCut 10
15
Node Left Objective IInf Best_Integer Best_Bound ItCnt Gap
0+ 0 nan nan 20293.1236 -2029.3124 nan 110.00%
0+ 0 nan nan -243.7454 -2029.3124 nan 732.55%
0 0 -518.7322 13 -243.7454 -518.7322 83 112.82%
0+ 0 nan nan -315.8010 -518.7322 nan 64.26%
0+ 0 nan nan -450.6273 -518.7322 nan 15.11%
0 0 -518.6649 21 -450.6273 Cuts:23 114 15.10%
0 0 -518.6252 22 -450.6273 Cuts:31 126 15.09%
0 0 -518.4097 22 -450.6273 Cuts:32 158 15.04%
0 0 -518.3069 18 -450.6273 Cuts:26 171 15.02%
0 0 -518.0878 24 -450.6273 Cuts:19 192 14.97%
0 0 -518.0281 25 -450.6273 Cuts:20 201 14.96%
0 0 -517.9883 26 -450.6273 Cuts:12 218 14.95%
0 0 -517.9541 25 -450.6273 Cuts:14 234 14.94%
0 0 -517.9420 27 -450.6273 Cuts:12 251 14.94%
0+ 0 nan nan -513.2451 -517.9420 nan 0.92%
0 2 -517.7167 15 -513.2451 -517.7110 251 0.87%
CPXPARAM_MIP_Cuts_LiftProj-MIRCut:LiftProj 8
CPXPARAM_MIP_Cuts_LiftProj-MIRCut:MIRCut 18
16
Node Left Objective IInf Best_Integer Best_Bound ItCnt Gap
0+ 0 nan nan 21872.1954 -2187.2195 nan 110.00%
0+ 0 nan nan -112.2220 -2187.2195 nan ---
0 0 -126.4787 11 -112.2220 -126.4787 89 12.70%
0 0 -126.4231 14 -112.2220 Cuts:16 105 12.65%
0 0 -126.1696 14 -112.2220 Cuts:30 115 12.43%
0+ 0 nan nan -116.0185 -126.1696 nan 8.75%
0 0 -126.1696 14 -116.0185 Cuts:17 124 8.75%
0 0 -126.1347 13 -116.0185 Cuts:14 131 8.72%
0 0 -126.0117 18 -116.0185 Cuts:16 144 8.61%
0 0 -125.9523 20 -116.0185 Cuts:17 159 8.56%
0 0 -125.7440 19 -116.0185 Cuts:16 181 8.38%
0 0 -125.7440 23 -116.0185 Cuts:14 190 8.38%
0+ 0 nan nan -122.0948 -125.7440 nan 2.99%
0+ 0 nan nan -124.3570 -125.7440 nan 1.12%
0+ 0 nan nan -124.5661 -125.7440 nan 0.95%
0 2 -125.7397 15 -124.5661 -125.7295 190 0.93%
CPXPARAM_MIP_Cuts_LiftProj-MIRCut:LiftProj 4
CPXPARAM_MIP_Cuts_LiftProj-MIRCut:MIRCut 11
17
Node Left Objective IInf Best_Integer Best_Bound ItCnt Gap
0+ 0 nan nan 16639.6111 -1663.9611 nan 110.00%
0+ 0 nan nan -399.5270 -1663.9611 nan 316.48%
0 0 -404.1656 14 -399.5270 -404.1656 83 1.16%
0 0 -403.5668 14 -399.5270 Cuts:13 100 1.01%
0 0 -403.4642 16 -399.5270 Cuts:15 119 0.99%
0 0 -403.4364 16 -399.5270 Cuts:13 135 0.98%
0 0 -403.1256 15 -399.5270 Cuts:22 153 0.90%
0 0 -403.0054 19 -399.5270 Cuts:22 167 0.87%
0 0 -402.9255 19 -399.5270 Cuts:15 180 0.85%
0 0 -402.8696 18 -399.5270 Cuts:18 191 0.84%
0 0 -402.7369 17 -399.5270 Cuts:17 206 0.80%
0 0 -402.7210 20 -399.5270 LiftProj:14 217 0.80%
0 0 -402.5952 12 -399.5270 Cuts:11 227 0.77%
0 0 -402.5700 13 -399.5270 Cuts:9 235 0.76%
0+ 0 nan nan -400.5489 -402.5700 nan 0.50%
0 2 -402.5700 10 -400.5489 -402.5281 235 0.49%
CPXPARAM_MIP_Cuts_LiftProj-MIRCut:LiftProj 1
CPXPARAM_MIP_Cuts_LiftProj-MIRCut:MIRCut 10
18
Node Left Objective IInf Best_Integer Best_Bound ItCnt Gap
0+ 0 nan nan 18821.9021 -1882.1902 nan 110.00%
0+ 0 nan nan -97.2991 -1882.1902 nan ---
0 0 -99.0172 8 -97.2991 -99.0172 77 1.77%
0 0 -99.0172 7 -97.2991 Cuts:11 88 1.77%
0+ 0 nan nan -98.6205 -99.0172 nan 0.40%
0 0 -99.0172 6 -98.6205 MIRcuts:1 91 0.40%
0 0 -99.0165 13 -98.6205 Cuts:5 100 0.40%
0+ 0 nan nan -98.9690 -99.0165 nan 0.05%
0 0 0 -98.9995 -98.9995 100 0.00% 0
CPXPARAM_MIP_Cuts_LiftProj-MIRCut:LiftProj 0
CPXPARAM_MIP_Cuts_LiftProj-MIRCut:MIRCut 7
19
Node Left Objective IInf Best_Integer Best_Bound ItCnt Gap
0+ 0 nan nan 19012.1137 -1901.2740 nan 110.00%
0+ 0 nan nan -411.3325 -1901.2740 nan 362.22%
0 0 -474.7865 8 -411.3325 -474.7865 76 15.43%
0+ 0 nan nan -411.4107 -474.7865 nan 15.40%
0+ 0 nan nan -472.5175 -474.7865 nan 0.48%
0 0 -474.7865 8 -472.5175 Cuts:6 86 0.48%
0+ 0 nan nan -473.4153 -474.7865 nan 0.29%
0 0 -474.7865 8 -473.4153 Cuts:4 91 0.29%
0+ 0 nan nan -474.7791 -474.7865 nan 0.00%
CPXPARAM_MIP_Cuts_LiftProj-MIRCut:LiftProj 6
CPXPARAM_MIP_Cuts_LiftProj-MIRCut:MIRCut 1
20
Node Left Objective IInf Best_Integer Best_Bound ItCnt Gap
0+ 0 nan nan 15115.0246 -1511.5025 nan 110.00%
0+ 0 nan nan -66.4447 -1511.5025 nan ---
0 0 -90.2455 12 -66.4447 -90.2455 91 35.82%
0 0 -89.9330 10 -66.4447 Cuts:19 103 35.35%
0+ 0 nan nan -88.1244 -89.9330 nan 2.05%
0 0 -89.6391 14 -88.1244 Cuts:22 112 1.72%
0 0 -89.4128 13 -88.1244 Cuts:15 123 1.46%
0 0 -89.0066 12 -88.1244 Cuts:18 147 1.00%
0 0 -88.8961 11 -88.1244 Cuts:20 158 0.88%
0 0 -88.7389 12 -88.1244 Cuts:16 175 0.70%
0 0 -88.5216 10 -88.1244 Cuts:6 189 0.45%
0 0 cutoff -88.1244 216 0.00% 0 0
CPXPARAM_MIP_Cuts_LiftProj-MIRCut:LiftProj 0
CPXPARAM_MIP_Cuts_LiftProj-MIRCut:MIRCut 4
21
Node Left Objective IInf Best_Integer Best_Bound ItCnt Gap
0+ 0 nan nan 15333.4248 -1533.3425 nan 110.00%
0+ 0 nan nan -221.9629 -1533.3425 nan 590.81%
0 0 -397.2126 26 -221.9629 -397.2126 110 78.95%
0+ 0 nan nan -235.8252 -397.2126 nan 68.44%
0 0 -396.2583 27 -235.8252 Cuts:19 119 68.03%
0 0 -395.7592 29 -235.8252 Cuts:26 132 67.82%
0 0 -395.5025 28 -235.8252 Cuts:27 144 67.71%
0+ 0 nan nan -283.9726 -395.5025 nan 39.27%
0 0 -395.2441 31 -283.9726 Cuts:38 162 39.18%
0+ 0 nan nan -287.3368 -395.2441 nan 37.55%
0 0 -394.5759 31 -287.3368 Cuts:31 192 37.32%
0 0 -393.7513 34 -287.3368 Cuts:44 218 37.03%
0 0 -392.3068 30 -287.3368 Cuts:27 254 36.53%
0 0 -392.0736 31 -287.3368 Cuts:24 280 36.45%
0+ 0 nan nan -287.6378 -392.0736 nan 36.31%
0 0 -391.9289 33 -287.6378 Cuts:26 299 36.26%
0 0 -391.6530 33 -287.6378 Cuts:24 326 36.16%
0 0 -391.6071 33 -287.6378 Cuts:28 338 36.15%
0 0 -391.2957 32 -287.6378 Cuts:24 362 36.04%
0 0 -391.2000 33 -287.6378 Cuts:22 378 36.00%
0 0 -391.1402 32 -287.6378 Cuts:23 390 35.98%
0 0 -391.0706 34 -287.6378 Cuts:22 399 35.96%
0 0 -390.9907 35 -287.6378 Cuts:21 414 35.93%
0 0 -390.8401 33 -287.6378 Cuts:17 440 35.88%
0 0 -390.8041 35 -287.6378 Cuts:18 455 35.87%
0 0 -390.7891 34 -287.6378 Cuts:25 475 35.86%
0+ 0 nan nan -336.4258 -390.7891 nan 16.16%
0+ 0 nan nan -384.0136 -390.7891 nan 1.76%
0 2 -390.7734 33 -384.0136 -390.7277 475 1.75%
CPXPARAM_MIP_Cuts_LiftProj-MIRCut:LiftProj 7
CPXPARAM_MIP_Cuts_LiftProj-MIRCut:MIRCut 27
22
Node Left Objective IInf Best_Integer Best_Bound ItCnt Gap
0+ 0 nan nan 15579.5689 -1557.9569 nan 110.00%
0+ 0 nan nan -75.9857 -1557.9569 nan ---
0 0 -96.9770 4 -75.9857 -96.9770 80 27.63%
0+ 0 nan nan -96.9770 -96.9770 nan 0.00%
0 0 cutoff -96.9770 -96.9770 80 0.00% 0
CPXPARAM_MIP_Cuts_LiftProj-MIRCut:LiftProj 0
CPXPARAM_MIP_Cuts_LiftProj-MIRCut:MIRCut 0
23
Node Left Objective IInf Best_Integer Best_Bound ItCnt Gap
0+ 0 nan nan 16097.8588 -1609.8715 nan 110.00%
0+ 0 nan nan -135.1706 -1609.8715 nan ---
0 0 -420.0439 21 -135.1706 -420.0439 92 210.75%
0+ 0 nan nan -205.3944 -420.0439 nan 104.51%
0+ 0 nan nan -308.1357 -420.0439 nan 36.32%
0 0 -418.4060 25 -308.1357 Cuts:16 120 35.79%
0 0 -416.9645 27 -308.1357 Cuts:33 151 35.32%
0 0 -415.9524 22 -308.1357 Cuts:40 188 34.99%
0+ 0 nan nan -308.2577 -415.9524 nan 34.94%
0 0 -415.7305 27 -308.2577 Cuts:40 216 34.86%
0+ 0 nan nan -308.4428 -415.7305 nan 34.78%
0 0 -415.2967 28 -308.4428 Cuts:28 246 34.64%
0 0 -414.7839 27 -308.4428 Cuts:20 276 34.48%
0 0 -414.3633 28 -308.4428 Cuts:32 306 34.34%
0 0 -414.0038 30 -308.4428 Cuts:22 341 34.22%
0 0 -413.8975 26 -308.4428 Cuts:24 362 34.19%
0+ 0 nan nan -358.6380 -413.8975 nan 15.41%
0 0 -413.7632 27 -358.6380 Cuts:22 389 15.37%
0 0 -413.6320 26 -358.6380 Cuts:33 412 15.33%
0 0 -413.5541 28 -358.6380 Cuts:23 429 15.31%
0 0 -413.4610 30 -358.6380 Cuts:15 447 15.29%
0 0 -413.4136 31 -358.6380 Cuts:21 458 15.27%
0 0 -413.3328 28 -358.6380 Cuts:25 477 15.25%
0 0 -413.3091 30 -358.6380 Cuts:16 490 15.24%
0+ 0 nan nan -408.1882 -413.3091 nan 1.25%
0+ 0 nan nan -408.4169 -413.3091 nan 1.20%
0+ 0 nan nan -408.5391 -413.3091 nan 1.17%
0 2 -413.3091 30 -408.5391 -413.2832 490 1.16%
CPXPARAM_MIP_Cuts_LiftProj-MIRCut:LiftProj 16
CPXPARAM_MIP_Cuts_LiftProj-MIRCut:MIRCut 16
24
Node Left Objective IInf Best_Integer Best_Bound ItCnt Gap
0+ 0 nan nan 18436.4445 -1843.6444 nan 110.00%
0+ 0 nan nan -94.2493 -1843.6444 nan ---
0 0 -115.3546 13 -94.2493 -115.3546 85 22.39%
0+ 0 nan nan -112.0044 -115.3546 nan 2.99%
0 0 -114.8065 7 -112.0044 Cuts:17 100 2.50%
0 0 -114.6184 7 -112.0044 Cuts:19 111 2.33%
0 0 -114.4216 8 -112.0044 Cuts:14 119 2.16%
0 0 -114.1146 8 -112.0044 Cuts:11 132 1.88%
0 0 -113.9326 8 -112.0044 Cuts:8 140 1.72%
0 0 -113.7323 9 -112.0044 Cuts:9 154 1.54%
0 0 -113.6470 9 -112.0044 Cuts:9 165 1.47%
0 0 -113.5792 8 -112.0044 LiftProj:6 180 1.41%
0 0 -113.4016 9 -112.0044 Cuts:8 195 1.25%
0 0 -113.3509 8 -112.0044 Cuts:9 203 1.20%
0 0 -113.3289 9 -112.0044 Cuts:7 208 1.18%
0 0 -113.2566 9 -112.0044 LiftProj:6 218 1.12%
0 0 -113.0637 9 -112.0044 Cuts:9 229 0.95%
0 0 -112.9989 8 -112.0044 LiftProj:7 235 0.89%
0 0 -112.9255 8 -112.0044 LiftProj:4 241 0.82%
0 0 -112.8485 9 -112.0044 Cuts:8 250 0.75%
0 0 -112.6268 6 -112.0044 Cuts:8 262 0.56%
0 0 -112.6145 8 -112.0044 LiftProj:5 269 0.54%
0 0 -112.5765 9 -112.0044 Cuts:7 276 0.51%
0 0 -112.5177 9 -112.0044 LiftProj:6 284 0.46%
0 0 -112.4348 9 -112.0044 LiftProj:5 291 0.38%
0 0 -112.4088 9 -112.0044 Cuts:8 298 0.36%
0 0 -112.3967 9 -112.0044 LiftProj:6 306 0.35%
0 0 cutoff -112.0044 -112.3967 306 0.35% 0
CPXPARAM_MIP_Cuts_LiftProj-MIRCut:LiftProj 3
CPXPARAM_MIP_Cuts_LiftProj-MIRCut:MIRCut 14
25
Node Left Objective IInf Best_Integer Best_Bound ItCnt Gap
0+ 0 nan nan 18806.7169 -1880.6717 nan 110.00%
0+ 0 nan nan -288.0183 -1880.6717 nan 552.97%
0 0 -492.8236 25 -288.0183 -492.8236 100 71.11%
0+ 0 nan nan -362.9258 -492.8236 nan 35.79%
0 0 -490.0592 28 -362.9258 Cuts:20 129 35.03%
0 0 -489.8375 28 -362.9258 Cuts:27 138 34.97%
0 0 -489.5187 29 -362.9258 Cuts:28 152 34.88%
0 0 -489.4135 30 -362.9258 Cuts:23 165 34.85%
0 0 -489.1509 29 -362.9258 Cuts:19 175 34.78%
0 0 -488.8515 31 -362.9258 Cuts:23 202 34.70%
0 0 -488.5522 33 -362.9258 Cuts:34 229 34.61%
0 0 -488.0223 29 -362.9258 Cuts:29 267 34.47%
0 0 -487.7885 33 -362.9258 Cuts:23 294 34.40%
0 0 -487.6473 31 -362.9258 Cuts:21 312 34.37%
0 0 -487.5000 33 -362.9258 Cuts:14 322 34.33%
0 0 -487.2877 33 -362.9258 Cuts:21 336 34.27%
0 0 -487.0429 32 -362.9258 Cuts:17 362 34.20%
0 0 -486.9428 34 -362.9258 Cuts:21 379 34.17%
0 0 -486.8383 34 -362.9258 LiftProj:12 395 34.14%
0 0 -486.6454 33 -362.9258 Cuts:18 420 34.09%
0 0 -486.5830 35 -362.9258 Cuts:18 434 34.07%
0 0 -486.4871 34 -362.9258 LiftProj:11 453 34.05%
0 0 -486.4089 34 -362.9258 Cuts:16 464 34.02%
0+ 0 nan nan -478.7246 -486.4089 nan 1.61%
0+ 0 nan nan -479.2162 -486.4089 nan 1.50%
0 2 -486.4089 34 -479.2162 -486.4040 464 1.50%
CPXPARAM_MIP_Cuts_LiftProj-MIRCut:LiftProj 7
CPXPARAM_MIP_Cuts_LiftProj-MIRCut:MIRCut 24
26
Node Left Objective IInf Best_Integer Best_Bound ItCnt Gap
0+ 0 nan nan 18555.8907 -1855.7233 nan 110.00%
0+ 0 nan nan -104.0034 -1855.7233 nan ---
0 0 -115.9815 5 -104.0034 -115.9815 67 11.52%
0+ 0 nan nan -115.9815 -115.9815 nan 0.00%
0 0 cutoff -115.9815 -115.9815 67 0.00% 0
CPXPARAM_MIP_Cuts_LiftProj-MIRCut:LiftProj 0
CPXPARAM_MIP_Cuts_LiftProj-MIRCut:MIRCut 0
27
Node Left Objective IInf Best_Integer Best_Bound ItCnt Gap
0+ 0 nan nan 17101.2086 -1710.7893 nan 110.00%
0+ 0 nan nan -257.8104 -1710.7893 nan 563.58%
0 0 -441.6815 19 -257.8104 -441.6815 93 71.32%
0+ 0 nan nan -327.4274 -441.6815 nan 34.89%
0 0 -440.4074 25 -327.4274 Cuts:17 115 34.51%
0 0 -439.6107 23 -327.4274 Cuts:22 133 34.26%
0+ 0 nan nan -327.6314 -439.6107 nan 34.18%
0 0 -438.7278 25 -327.6314 Cuts:17 161 33.91%
0 0 -438.2974 24 -327.6314 Cuts:29 187 33.78%
0 0 -438.0179 26 -327.6314 Cuts:25 217 33.69%
0 0 -437.8591 25 -327.6314 Cuts:23 234 33.64%
0 0 -437.5131 27 -327.6314 Cuts:16 257 33.54%
0 0 -437.1470 25 -327.6314 Cuts:13 291 33.43%
0 0 -436.9824 24 -327.6314 Cuts:32 313 33.38%
0 0 -436.9119 25 -327.6314 Cuts:23 328 33.35%
0 0 -436.7557 26 -327.6314 Cuts:21 358 33.31%
0 0 -436.7147 27 -327.6314 Cuts:12 384 33.29%
0 0 -436.5881 27 -327.6314 Cuts:15 413 33.26%
0 0 -436.4945 28 -327.6314 Cuts:12 435 33.23%
0 0 -436.2701 28 -327.6314 Cuts:10 463 33.16%
0 0 -436.1975 25 -327.6314 Cuts:13 490 33.14%
0 0 -436.1825 26 -327.6314 Cuts:16 500 33.13%
0+ 0 nan nan -433.6572 -436.1825 nan 0.58%
0 2 -436.1777 25 -433.6572 -436.1716 500 0.58%
CPXPARAM_MIP_Cuts_LiftProj-MIRCut:LiftProj 14
CPXPARAM_MIP_Cuts_LiftProj-MIRCut:MIRCut 15
28
Node Left Objective IInf Best_Integer Best_Bound ItCnt Gap
0+ 0 nan nan 23195.9038 -2319.5904 nan 110.00%
0+ 0 nan nan -104.6712 -2319.5904 nan ---
0 0 -120.0533 11 -104.6712 -120.0533 77 14.70%
0 0 -119.5752 10 -104.6712 Cuts:20 90 14.24%
0 0 -119.3187 11 -104.6712 Cuts:16 105 13.99%
0+ 0 nan nan -115.2003 -119.3187 nan 3.57%
0 0 -119.1245 11 -115.2003 LiftProj:6 117 3.41%
0 0 -119.0555 11 -115.2003 Cuts:9 132 3.35%
0 0 -118.8620 11 -115.2003 Cuts:6 145 3.18%
0+ 0 nan nan -117.2287 -118.8620 nan 1.39%
0 0 -118.7939 10 -117.2287 Cuts:7 152 1.34%
0 0 -118.7071 11 -117.2287 LiftProj:5 159 1.26%
0 0 -118.5832 10 -117.2287 Cuts:6 169 1.16%
0 0 -118.5804 11 -117.2287 LiftProj:4 172 1.15%
0 0 -118.4401 7 -117.2287 LiftProj:6 183 1.03%
0 0 -118.3838 8 -117.2287 Cuts:5 194 0.99%
0 0 -118.2863 8 -117.2287 Cuts:8 208 0.90%
0 0 -118.2007 10 -117.2287 Cuts:7 220 0.83%
0 0 -118.1793 8 -117.2287 Cuts:6 225 0.81%
0 0 -118.1115 7 -117.2287 Cuts:6 233 0.75%
0 0 -118.0877 12 -117.2287 LiftProj:5 245 0.73%
0 0 -118.0837 12 -117.2287 Cuts:16 250 0.73%
0 2 -117.8356 4 -117.2287 -117.8292 250 0.51%
CPXPARAM_MIP_Cuts_LiftProj-MIRCut:LiftProj 1
CPXPARAM_MIP_Cuts_LiftProj-MIRCut:MIRCut 11
29
Node Left Objective IInf Best_Integer Best_Bound ItCnt Gap
0+ 0 nan nan 18473.6572 -1847.3657 nan 110.00%
0+ 0 nan nan -427.6235 -1847.3657 nan 332.01%
0 0 -444.7353 17 -427.6235 -444.7353 96 4.00%
0 0 -444.3864 19 -427.6235 Cuts:22 115 3.92%
0 0 -444.1970 20 -427.6235 Cuts:26 132 3.88%
0 0 -443.4555 19 -427.6235 Cuts:27 160 3.70%
0 0 -443.3032 19 -427.6235 Cuts:25 185 3.67%
0 0 -443.2088 20 -427.6235 Cuts:20 211 3.64%
0 0 -443.1839 18 -427.6235 Cuts:17 229 3.64%
0 0 -442.9673 8 -427.6235 Cuts:9 245 3.59%
0+ 0 nan nan -441.1131 -442.9673 nan 0.42%
0 0 -442.8289 8 -441.1131 Cuts:11 260 0.39%
0 0 -442.6507 9 -441.1131 Cuts:9 267 0.35%
0+ 0 nan nan -441.1471 -442.6507 nan 0.34%
0 0 -442.6336 9 -441.1471 Cuts:9 270 0.34%
0 2 -442.4645 5 -441.1471 -442.4010 270 0.28%
CPXPARAM_MIP_Cuts_LiftProj-MIRCut:LiftProj 5
CPXPARAM_MIP_Cuts_LiftProj-MIRCut:MIRCut 7
30
Node Left Objective IInf Best_Integer Best_Bound ItCnt Gap
0+ 0 nan nan 20012.4297 -2001.2537 nan 110.00%
0+ 0 nan nan -82.7793 -2001.2537 nan ---
0 0 -93.4019 2 -82.7793 -93.4019 66 12.83%
0+ 0 nan nan -93.4019 -93.4019 nan 0.00%
CPXPARAM_MIP_Cuts_LiftProj-MIRCut:LiftProj 0
CPXPARAM_MIP_Cuts_LiftProj-MIRCut:MIRCut 0
31
Node Left Objective IInf Best_Integer Best_Bound ItCnt Gap
0+ 0 nan nan 20469.5526 -2046.9553 nan 110.00%
0+ 0 nan nan -497.9458 -2046.9553 nan 311.08%
0 0 -506.7396 12 -497.9458 -506.7396 92 1.77%
0+ 0 nan nan -501.8232 -506.7396 nan 0.98%
0 0 -506.7396 3 -501.8232 Cuts:2 100 0.98%
0+ 0 nan nan -506.6867 -506.7396 nan 0.01%
0 0 -506.7396 4 -506.6867 Cuts:2 103 0.01%
0 0 -506.7240 3 -506.6867 Cuts:3 110 0.01%
CPXPARAM_MIP_Cuts_LiftProj-MIRCut:LiftProj 2
CPXPARAM_MIP_Cuts_LiftProj-MIRCut:MIRCut 2
32
Node Left Objective IInf Best_Integer Best_Bound ItCnt Gap
0+ 0 nan nan 13911.0729 -1391.1073 nan 110.00%
0+ 0 nan nan -39.6136 -1391.1073 nan ---
0 0 -68.2827 6 -39.6136 -68.2827 77 72.37%
0+ 0 nan nan -65.9578 -68.2827 nan 3.52%
0 0 -65.9888 3 -65.9578 Cuts:4 94 0.05%
0 0 cutoff -65.9578 99 0.00% 0 0
CPXPARAM_MIP_Cuts_LiftProj-MIRCut:LiftProj 2
CPXPARAM_MIP_Cuts_LiftProj-MIRCut:MIRCut 1
33
Node Left Objective IInf Best_Integer Best_Bound ItCnt Gap
0+ 0 nan nan 16748.4512 -1674.8451 nan 110.00%
0+ 0 nan nan -180.4833 -1674.8451 nan 827.98%
0 0 -425.8102 14 -180.4833 -425.8102 120 135.93%
0+ 0 nan nan -362.2668 -425.8102 nan 17.54%
0 0 -425.3420 21 -362.2668 Cuts:22 143 17.41%
0 0 -424.9120 27 -362.2668 Cuts:37 169 17.29%
0 0 -424.2672 28 -362.2668 Cuts:42 200 17.11%
0 0 -424.1411 29 -362.2668 Cuts:26 211 17.08%
0 0 -423.8409 31 -362.2668 Cuts:27 231 17.00%
0 0 -423.5768 32 -362.2668 Cuts:24 243 16.92%
0 0 -423.4419 31 -362.2668 Cuts:39 261 16.89%
0+ 0 nan nan -363.6481 -423.4419 nan 16.44%
0 0 -423.2493 32 -363.6481 Cuts:32 277 16.39%
0 0 -423.0394 33 -363.6481 Cuts:24 293 16.33%
0 0 -422.7944 33 -363.6481 Cuts:20 323 16.26%
0 0 -422.6515 35 -363.6481 Cuts:26 337 16.23%
0 0 -422.5956 34 -363.6481 Cuts:17 351 16.21%
0 0 -422.4789 33 -363.6481 Cuts:21 371 16.18%
0 0 -422.3657 36 -363.6481 Cuts:15 386 16.15%
0 0 -422.3289 36 -363.6481 Cuts:22 396 16.14%
0 0 -422.2477 35 -363.6481 Cuts:15 407 16.11%
0 0 -422.2186 34 -363.6481 Cuts:11 420 16.11%
0+ 0 nan nan -417.2537 -422.2186 nan 1.19%
0 2 -422.2186 34 -417.2537 -422.2153 420 1.19%
CPXPARAM_MIP_Cuts_LiftProj-MIRCut:LiftProj 12
CPXPARAM_MIP_Cuts_LiftProj-MIRCut:MIRCut 24
34
Node Left Objective IInf Best_Integer Best_Bound ItCnt Gap
0+ 0 nan nan 19055.0102 -1905.5010 nan 110.00%
0+ 0 nan nan -113.0294 -1905.5010 nan ---
0 0 -121.1718 5 -113.0294 -121.1718 75 7.20%
0+ 0 nan nan -117.8797 -121.1718 nan 2.79%
0 0 -121.1718 10 -117.8797 Cuts:7 92 2.79%
0+ 0 nan nan -119.8794 -121.1718 nan 1.08%
0 0 -121.1652 10 -119.8794 Cuts:5 104 1.07%
0 0 -121.1652 8 -119.8794 Cuts:5 106 1.07%
0+ 0 nan nan -120.6252 -121.1652 nan 0.45%
0+ 0 nan nan -120.6252 -121.1652 nan 0.45%
0 0 -120.9707 3 -120.6252 -120.9707 171 0.29%
0+ 0 nan nan -120.8524 -120.9707 nan 0.10%
0 0 cutoff -120.8524 180 0.00% 0 0
CPXPARAM_MIP_Cuts_LiftProj-MIRCut:LiftProj 0
CPXPARAM_MIP_Cuts_LiftProj-MIRCut:MIRCut 8
35
Node Left Objective IInf Best_Integer Best_Bound ItCnt Gap
0+ 0 nan nan 16780.9114 -1678.3241 nan 110.00%
0+ 0 nan nan -187.6361 -1678.3241 nan 794.46%
0 0 -420.9670 14 -187.6361 -420.9670 75 124.35%
0+ 0 nan nan -253.1346 -420.9670 nan 66.30%
0+ 0 nan nan -417.9530 -420.9670 nan 0.72%
0 0 -420.9670 13 -417.9530 Cuts:10 97 0.72%
0 0 -420.6734 16 -417.9530 Cuts:12 117 0.65%
0 0 -420.2948 17 -417.9530 Cuts:32 132 0.56%
0 0 -420.0686 17 -417.9530 Cuts:16 150 0.51%
0 0 -419.7805 15 -417.9530 Cuts:16 165 0.44%
0 0 -419.6813 18 -417.9530 Cuts:18 177 0.41%
0 0 -419.5227 19 -417.9530 Cuts:14 191 0.38%
0 0 -419.4206 21 -417.9530 Cuts:14 204 0.35%
0 0 -419.2944 21 -417.9530 Cuts:11 219 0.32%
0 0 -419.2317 18 -417.9530 Cuts:14 231 0.31%
0 0 -419.0165 20 -417.9530 Cuts:11 252 0.25%
0 0 -418.8673 18 -417.9530 Cuts:14 266 0.22%
0 0 -418.7910 18 -417.9530 Cuts:15 278 0.20%
0 0 -418.7420 20 -417.9530 Cuts:4 295 0.19%
0 0 -418.6935 19 -417.9530 Cuts:6 311 0.18%
0 0 cutoff -417.9530 -418.6935 311 0.18% 0
CPXPARAM_MIP_Cuts_LiftProj-MIRCut:LiftProj 6
CPXPARAM_MIP_Cuts_LiftProj-MIRCut:MIRCut 18
36
Node Left Objective IInf Best_Integer Best_Bound ItCnt Gap
0+ 0 nan nan 22941.7465 -2294.1747 nan 110.00%
0+ 0 nan nan -123.5349 -2294.1747 nan ---
0 0 -146.5944 12 -123.5349 -146.5944 96 18.67%
0 0 -145.3945 7 -123.5349 Cuts:16 110 17.70%
0+ 0 nan nan -137.1704 -145.3945 nan 6.00%
0 0 -144.5332 6 -137.1704 LiftProj:4 123 5.37%
0+ 0 nan nan -140.1787 -144.5332 nan 3.11%
0 0 -144.3877 6 -140.1787 LiftProj:5 130 3.00%
0 0 -144.3250 6 -140.1787 LiftProj:4 136 2.96%
0 0 -144.1762 7 -140.1787 LiftProj:5 143 2.85%
0 0 -144.0499 7 -140.1787 Cuts:6 156 2.76%
0 0 -143.0720 6 -140.1787 LiftProj:8 172 2.06%
0 0 -142.8197 7 -140.1787 Cuts:10 180 1.88%
0 0 -142.7627 6 -140.1787 Cuts:5 184 1.84%
0 0 -142.7111 6 -140.1787 LiftProj:3 187 1.81%
0 0 -142.4654 8 -140.1787 LiftProj:5 202 1.63%
0 0 -142.2523 7 -140.1787 LiftProj:6 211 1.48%
0 0 -142.1953 6 -140.1787 LiftProj:5 219 1.44%
0 0 -142.0344 7 -140.1787 LiftProj:5 235 1.32%
0 0 -141.9900 8 -140.1787 Cuts:13 247 1.29%
0 0 -141.9430 8 -140.1787 Cuts:11 258 1.26%
0 0 -141.8905 7 -140.1787 Cuts:10 264 1.22%
0 0 -141.5932 7 -140.1787 LiftProj:5 278 1.01%
0 0 -141.5145 8 -140.1787 Cuts:7 288 0.95%
0 0 -141.2663 8 -140.1787 LiftProj:6 302 0.78%
0 0 -141.2514 8 -140.1787 LiftProj:3 306 0.77%
0 0 -141.2230 8 -140.1787 Cuts:8 313 0.74%
0 2 -140.5364 2 -140.1787 -140.4683 313 0.21%
CPXPARAM_MIP_Cuts_LiftProj-MIRCut:LiftProj 1
CPXPARAM_MIP_Cuts_LiftProj-MIRCut:MIRCut 14
37
Node Left Objective IInf Best_Integer Best_Bound ItCnt Gap
0+ 0 nan nan 22253.7712 -2225.3771 nan 110.00%
0+ 0 nan nan -192.7597 -2225.3771 nan ---
0 0 -583.6149 25 -192.7597 -583.6149 103 202.77%
0+ 0 nan nan -350.5396 -583.6149 nan 66.49%
0 0 -582.3243 25 -350.5396 Cuts:25 118 66.12%
0+ 0 nan nan -355.1572 -582.3243 nan 63.96%
0 0 -580.5213 28 -355.1572 Cuts:29 143 63.45%
0 0 -580.0975 29 -355.1572 Cuts:35 161 63.34%
0 0 -579.5299 30 -355.1572 Cuts:31 192 63.18%
0 0 -579.1384 31 -355.1572 Cuts:30 215 63.07%
0+ 0 nan nan -355.5276 -579.1384 nan 62.90%
0 0 -578.2504 30 -355.5276 Cuts:43 249 62.65%
0 0 -577.1782 31 -355.5276 Cuts:35 282 62.34%
0 0 -576.5814 32 -355.5276 Cuts:28 314 62.18%
0 0 -576.0919 34 -355.5276 Cuts:32 345 62.04%
0 0 -575.6553 32 -355.5276 Cuts:25 374 61.92%
0 0 -575.5537 32 -355.5276 Cuts:28 386 61.89%
0 0 -575.3721 32 -355.5276 Cuts:25 409 61.84%
0 0 -575.2511 35 -355.5276 Cuts:25 421 61.80%
0 0 -575.1737 32 -355.5276 Cuts:20 440 61.78%
0 0 -575.0963 34 -355.5276 Cuts:25 454 61.76%
0+ 0 nan nan -564.1013 -575.0963 nan 1.95%
0 2 -575.0963 34 -564.1013 -575.0597 454 1.94%
CPXPARAM_MIP_Cuts_LiftProj-MIRCut:LiftProj 10
CPXPARAM_MIP_Cuts_LiftProj-MIRCut:MIRCut 21
38
Node Left Objective IInf Best_Integer Best_Bound ItCnt Gap
0+ 0 nan nan 19121.8104 -1912.4176 nan 110.00%
0+ 0 nan nan -95.8861 -1912.4176 nan ---
0 0 -109.3384 7 -95.8861 -109.3384 75 14.03%
0+ 0 nan nan -109.3384 -109.3384 nan 0.00%
0 0 cutoff -109.3384 -109.3384 75 0.00% 0
CPXPARAM_MIP_Cuts_LiftProj-MIRCut:LiftProj 0
CPXPARAM_MIP_Cuts_LiftProj-MIRCut:MIRCut 0
39
Node Left Objective IInf Best_Integer Best_Bound ItCnt Gap
0+ 0 nan nan 22617.4474 -2261.8298 nan 110.00%
0+ 0 nan nan -361.4650 -2261.8298 nan 525.74%
0 0 -588.7435 24 -361.4650 -588.7435 97 62.88%
0+ 0 nan nan -434.4180 -588.7435 nan 35.52%
0 0 -586.4112 20 -434.4180 Cuts:31 133 34.99%
0 0 -585.1639 25 -434.4180 Cuts:26 162 34.70%
0 0 -584.1860 27 -434.4180 Cuts:36 192 34.48%
0 0 -582.9589 24 -434.4180 Cuts:26 227 34.19%
0 0 -582.1486 25 -434.4180 Cuts:41 257 34.01%
0 0 -581.7730 27 -434.4180 Cuts:42 277 33.92%
0 0 -581.4143 27 -434.4180 Cuts:35 305 33.84%
0 0 -580.9320 28 -434.4180 Cuts:19 342 33.73%
0 0 -580.7744 29 -434.4180 Cuts:21 362 33.69%
0 0 -580.5365 29 -434.4180 Cuts:23 393 33.64%
0 0 -580.4207 27 -434.4180 Cuts:22 416 33.61%
0+ 0 nan nan -505.5248 -580.4207 nan 14.82%
0 0 -580.2444 30 -505.5248 Cuts:29 445 14.78%
0 0 -580.1938 29 -505.5248 Cuts:23 459 14.77%
0+ 0 nan nan -505.5578 -580.1938 nan 14.76%
0 0 -580.1394 29 -505.5578 Cuts:11 475 14.75%
0+ 0 nan nan -575.7727 -580.1394 nan 0.76%
0 2 -580.1394 29 -575.7727 -580.0614 475 0.74%
CPXPARAM_MIP_Cuts_LiftProj-MIRCut:LiftProj 16
CPXPARAM_MIP_Cuts_LiftProj-MIRCut:MIRCut 14
